0 8524 5496
1 8133 7613
2 4376 2962
3 1091 1075
4 9870 4459
5 3000 6308
6 4105 343
7 6286 9866
8 5499 6465
9 7317 8165
10 7421 1088
11 7410 7875
12 5667 420
13 3024 522
14 1006 7644
15 7045 3206
16 4107 5608
17 6752 1546
18 3242 2614
19 1086 9588
20 1529 4972
21 9644 6194
22 5502 2529
23 8007 2059
24 7059 5255
25 7183 8828
26 956 5928
27 8362 1919
28 7444 6317
29 789 681
30 1893 1733
31 9989 2561
32 855 5384
33 8795 6520
34 8464 4969
35 6165 5657
36 233 5169
37 4002 607
38 1985 8301
39 4494 1629
40 4282 2822
41 2459 2878
42 4833 3097
43 5376 442
44 652 9715
45 2635 5457
46 636 4795
47 5747 23
48 5202 7644
49 7289 5324
